solving instance transportation 20 5 sinabc2
Couenne 0.5.8 -- an Open-Source solver for Mixed Integer Nonlinear Optimization
Mailing list: couenne@list.coin-or.org
Instructions: http://www.coin-or.org/Couenne
couenne: 
ANALYSIS TEST: Reformulating problem: 0.4 seconds
NLP0012I 
              Num      Status      Obj             It       time                 Location
NLP0014I             1         OPT 456.3396      229 3.145471
NLP0014I             2         OPT 761.22236      200 2.729621
Couenne: new cutoff value 7.6122236179e+02 (19.5591 seconds)
Loaded instance "/tmp/jl_wfkoHC/model.nl"
Constraints:          840
Variables:           1200 (400 integer)
Auxiliaries:         1602 (0 integer)

Coin0506I Presolve 4831 (-810) rows, 1991 (-811) columns and 11181 (-1621) elements
Clp0006I 0  Obj 0 Primal inf 3935.3472 (820)
Clp0006I 171  Obj 8.984939e-15 Primal inf 2571.8889 (869)
Clp0006I 342  Obj 2.1409976e-11 Primal inf 6535.9738 (856)
Clp0006I 513  Obj -7.7226181e-13 Primal inf 24559.51 (809)
Clp0006I 684  Obj 3.5819575e-10 Primal inf 51656.355 (745)
Clp0006I 855  Obj 5.5329942e-09 Primal inf 335887.87 (639)
Clp0006I 1026  Obj 3.1654535e-08 Primal inf 625811.82 (602)
Clp0006I 1197  Obj 48.134677 Primal inf 2170.6544 (505)
Clp0006I 1368  Obj 48.843116 Primal inf 2047.8287 (376)
Clp0006I 1539  Obj 49.909212 Primal inf 396.7649 (95)
Clp0006I 1710  Obj 58.81553 Primal inf 49.543271 (42)
Clp0006I 1849  Obj 58.873098
Clp0000I Optimal - objective value 58.873098
Clp0032I Optimal objective 58.87309773 - 1849 iterations time 0.232, Presolve 0.03
Clp0000I Optimal - objective value 58.873098
NLP Heuristic: time limit reached.
Clp0000I Optimal - objective value 58.873098
Optimality Based BT: 0 improved bounds
Probing: 0 improved bounds
NLP Heuristic: time limit reached.
Cbc0031I 752 added rows had average density of 2
Cbc0013I At root node, 752 cuts changed objective from 58.873098 to 129.03207 in 20 passes
Cbc0014I Cut generator 0 (Couenne convexifier cuts) - 6010 row cuts average 2.0 elements, 142 column cuts (854 active)
Cbc0010I After 0 nodes, 1 on tree, 1e+50 best solution, best possible -1.7976931e+308 (39.03 seconds)
Optimality Based BT: 0 improved bounds
Optimality Based BT: 0 improved bounds
Optimality Based BT: 0 improved bounds
Optimality Based BT: 0 improved bounds
Optimality Based BT: 0 improved bounds
Optimality Based BT: 8 improved bounds
Optimality Based BT: 0 improved bounds
Cbc0010I After 100 nodes, 50 on tree, 1e+50 best solution, best possible 134.17319 (350.16 seconds)
Cbc0010I After 200 nodes, 100 on tree, 1e+50 best solution, best possible 134.17319 (368.66 seconds)
Cbc0010I After 300 nodes, 150 on tree, 1e+50 best solution, best possible 134.17319 (387.61 seconds)
Cbc0010I After 400 nodes, 200 on tree, 1e+50 best solution, best possible 134.17319 (405.44 seconds)
Cbc0010I After 500 nodes, 250 on tree, 1e+50 best solution, best possible 134.17319 (423.22 seconds)
Cbc0010I After 600 nodes, 300 on tree, 1e+50 best solution, best possible 134.17319 (440.11 seconds)
Cbc0010I After 700 nodes, 350 on tree, 1e+50 best solution, best possible 134.17319 (457.69 seconds)
Cbc0010I After 800 nodes, 400 on tree, 1e+50 best solution, best possible 134.17319 (476.11 seconds)
Cbc0010I After 900 nodes, 450 on tree, 1e+50 best solution, best possible 134.17319 (494.03 seconds)
Cbc0010I After 1000 nodes, 500 on tree, 1e+50 best solution, best possible 134.17319 (511.95 seconds)
Cbc0010I After 1100 nodes, 550 on tree, 1e+50 best solution, best possible 134.17319 (529.44 seconds)
Cbc0010I After 1200 nodes, 600 on tree, 1e+50 best solution, best possible 134.17319 (548.15 seconds)
Cbc0010I After 1300 nodes, 650 on tree, 1e+50 best solution, best possible 134.17319 (565.79 seconds)
Cbc0010I After 1400 nodes, 700 on tree, 1e+50 best solution, best possible 134.17319 (583.71 seconds)
Cbc0010I After 1500 nodes, 750 on tree, 1e+50 best solution, best possible 134.17319 (602.05 seconds)
Cbc0010I After 1600 nodes, 800 on tree, 1e+50 best solution, best possible 134.17319 (620.87 seconds)
Cbc0010I After 1700 nodes, 850 on tree, 1e+50 best solution, best possible 134.17319 (638.00 seconds)
Cbc0010I After 1800 nodes, 900 on tree, 1e+50 best solution, best possible 134.17319 (655.63 seconds)
Cbc0010I After 1900 nodes, 950 on tree, 1e+50 best solution, best possible 134.17319 (673.61 seconds)
Cbc0010I After 2000 nodes, 1000 on tree, 1e+50 best solution, best possible 134.17319 (691.38 seconds)
Cbc0010I After 2100 nodes, 1050 on tree, 1e+50 best solution, best possible 134.17319 (709.62 seconds)
Cbc0010I After 2200 nodes, 1100 on tree, 1e+50 best solution, best possible 134.17319 (727.94 seconds)
Cbc0010I After 2300 nodes, 1150 on tree, 1e+50 best solution, best possible 134.17319 (746.65 seconds)
Cbc0010I After 2400 nodes, 1200 on tree, 1e+50 best solution, best possible 134.17319 (764.87 seconds)
Cbc0010I After 2500 nodes, 1250 on tree, 1e+50 best solution, best possible 134.17319 (782.09 seconds)
Cbc0010I After 2600 nodes, 1300 on tree, 1e+50 best solution, best possible 134.17319 (799.07 seconds)
Cbc0010I After 2700 nodes, 1350 on tree, 1e+50 best solution, best possible 134.17319 (815.87 seconds)
Cbc0010I After 2800 nodes, 1400 on tree, 1e+50 best solution, best possible 134.17319 (832.61 seconds)
Cbc0010I After 2900 nodes, 1450 on tree, 1e+50 best solution, best possible 134.17319 (849.41 seconds)
Cbc0010I After 3000 nodes, 1500 on tree, 1e+50 best solution, best possible 134.17319 (866.26 seconds)
Cbc0010I After 3100 nodes, 1550 on tree, 1e+50 best solution, best possible 134.17319 (882.61 seconds)
Cbc0010I After 3200 nodes, 1600 on tree, 1e+50 best solution, best possible 134.17319 (899.35 seconds)
Cbc0010I After 3300 nodes, 1650 on tree, 1e+50 best solution, best possible 134.17319 (915.90 seconds)
Cbc0010I After 3400 nodes, 1700 on tree, 1e+50 best solution, best possible 134.17319 (932.22 seconds)
Cbc0010I After 3500 nodes, 1750 on tree, 1e+50 best solution, best possible 134.17319 (948.78 seconds)
Cbc0010I After 3600 nodes, 1800 on tree, 1e+50 best solution, best possible 134.17319 (965.86 seconds)
Cbc0010I After 3700 nodes, 1850 on tree, 1e+50 best solution, best possible 134.17319 (982.44 seconds)
Cbc0010I After 3800 nodes, 1900 on tree, 1e+50 best solution, best possible 134.17319 (999.63 seconds)
Cbc0010I After 3900 nodes, 1950 on tree, 1e+50 best solution, best possible 134.17319 (1017.12 seconds)
Cbc0010I After 4000 nodes, 2000 on tree, 1e+50 best solution, best possible 134.17319 (1034.60 seconds)
Cbc0010I After 4100 nodes, 2050 on tree, 1e+50 best solution, best possible 134.17319 (1052.44 seconds)
Cbc0010I After 4200 nodes, 2100 on tree, 1e+50 best solution, best possible 134.17319 (1069.80 seconds)
Cbc0010I After 4300 nodes, 2150 on tree, 1e+50 best solution, best possible 134.17319 (1087.75 seconds)
Cbc0010I After 4400 nodes, 2200 on tree, 1e+50 best solution, best possible 134.17319 (1106.06 seconds)
Cbc0010I After 4500 nodes, 2250 on tree, 1e+50 best solution, best possible 134.17319 (1123.43 seconds)
Cbc0010I After 4600 nodes, 2299 on tree, 1e+50 best solution, best possible 134.17319 (1141.00 seconds)
Cbc0010I After 4700 nodes, 2349 on tree, 1e+50 best solution, best possible 134.17319 (1158.33 seconds)
Cbc0010I After 4800 nodes, 2399 on tree, 1e+50 best solution, best possible 134.17319 (1176.11 seconds)
Cbc0010I After 4900 nodes, 2449 on tree, 1e+50 best solution, best possible 134.17319 (1194.25 seconds)
Cbc0010I After 5000 nodes, 2499 on tree, 1e+50 best solution, best possible 134.17319 (1212.22 seconds)
Cbc0010I After 5100 nodes, 2549 on tree, 1e+50 best solution, best possible 134.17319 (1230.10 seconds)
Cbc0010I After 5200 nodes, 2599 on tree, 1e+50 best solution, best possible 134.17319 (1248.70 seconds)
Cbc0010I After 5300 nodes, 2649 on tree, 1e+50 best solution, best possible 134.17319 (1267.34 seconds)
Cbc0010I After 5400 nodes, 2699 on tree, 1e+50 best solution, best possible 134.17319 (1285.98 seconds)
Cbc0010I After 5500 nodes, 2749 on tree, 1e+50 best solution, best possible 134.17319 (1304.32 seconds)
Cbc0010I After 5600 nodes, 2799 on tree, 1e+50 best solution, best possible 134.17319 (1323.05 seconds)
Cbc0010I After 5700 nodes, 2849 on tree, 1e+50 best solution, best possible 134.17319 (1342.12 seconds)
Cbc0010I After 5800 nodes, 2899 on tree, 1e+50 best solution, best possible 134.17319 (1361.21 seconds)
Cbc0010I After 5900 nodes, 2949 on tree, 1e+50 best solution, best possible 134.17319 (1380.89 seconds)
Cbc0010I After 6000 nodes, 2998 on tree, 1e+50 best solution, best possible 134.17319 (1400.31 seconds)
Cbc0010I After 6100 nodes, 3048 on tree, 1e+50 best solution, best possible 134.17319 (1420.17 seconds)
Cbc0010I After 6200 nodes, 3098 on tree, 1e+50 best solution, best possible 134.17319 (1440.20 seconds)
Cbc0010I After 6300 nodes, 3147 on tree, 1e+50 best solution, best possible 134.17319 (1460.28 seconds)
Cbc0010I After 6400 nodes, 3197 on tree, 1e+50 best solution, best possible 134.17319 (1480.70 seconds)
Cbc0010I After 6500 nodes, 3247 on tree, 1e+50 best solution, best possible 134.17319 (1501.25 seconds)
Cbc0010I After 6600 nodes, 3297 on tree, 1e+50 best solution, best possible 134.17319 (1522.06 seconds)
Cbc0010I After 6700 nodes, 3346 on tree, 1e+50 best solution, best possible 134.17319 (1543.05 seconds)
Cbc0010I After 6800 nodes, 3396 on tree, 1e+50 best solution, best possible 134.17319 (1564.33 seconds)
Cbc0010I After 6900 nodes, 3446 on tree, 1e+50 best solution, best possible 134.17319 (1585.82 seconds)
Cbc0010I After 7000 nodes, 3495 on tree, 1e+50 best solution, best possible 134.17319 (1607.20 seconds)
Cbc0010I After 7100 nodes, 3545 on tree, 1e+50 best solution, best possible 134.17319 (1628.99 seconds)
Cbc0010I After 7200 nodes, 3594 on tree, 1e+50 best solution, best possible 134.17319 (1650.94 seconds)
Cbc0010I After 7300 nodes, 3644 on tree, 1e+50 best solution, best possible 134.17319 (1673.19 seconds)
Cbc0010I After 7400 nodes, 3694 on tree, 1e+50 best solution, best possible 134.17319 (1695.44 seconds)
Cbc0010I After 7500 nodes, 3743 on tree, 1e+50 best solution, best possible 134.17319 (1717.90 seconds)
Cbc0010I After 7600 nodes, 3782 on tree, 1e+50 best solution, best possible 134.17319 (1740.16 seconds)
Cbc0010I After 7700 nodes, 3826 on tree, 1e+50 best solution, best possible 134.17319 (1762.87 seconds)
Cbc0010I After 7800 nodes, 3873 on tree, 1e+50 best solution, best possible 134.17319 (1786.10 seconds)
Cbc0010I After 7900 nodes, 3923 on tree, 1e+50 best solution, best possible 134.17319 (1809.65 seconds)
Cbc0010I After 8000 nodes, 3968 on tree, 1e+50 best solution, best possible 134.17319 (1833.19 seconds)
Cbc0010I After 8100 nodes, 4016 on tree, 1e+50 best solution, best possible 134.17319 (1857.14 seconds)
Cbc0010I After 8200 nodes, 4065 on tree, 1e+50 best solution, best possible 134.17319 (1881.47 seconds)
Cbc0010I After 8300 nodes, 4113 on tree, 1e+50 best solution, best possible 134.17319 (1906.03 seconds)
Cbc0010I After 8400 nodes, 4161 on tree, 1e+50 best solution, best possible 134.17319 (1930.71 seconds)
Cbc0010I After 8500 nodes, 4211 on tree, 1e+50 best solution, best possible 134.17319 (1955.75 seconds)
Cbc0010I After 8600 nodes, 4261 on tree, 1e+50 best solution, best possible 134.17319 (1980.88 seconds)
Cbc0010I After 8700 nodes, 4308 on tree, 1e+50 best solution, best possible 134.17319 (2006.24 seconds)
Cbc0010I After 8800 nodes, 4358 on tree, 1e+50 best solution, best possible 134.17319 (2032.00 seconds)
Cbc0010I After 8900 nodes, 4406 on tree, 1e+50 best solution, best possible 134.17319 (2057.99 seconds)
Cbc0010I After 9000 nodes, 4456 on tree, 1e+50 best solution, best possible 134.17319 (2084.29 seconds)
Cbc0010I After 9100 nodes, 4505 on tree, 1e+50 best solution, best possible 134.17319 (2110.71 seconds)
Cbc0010I After 9200 nodes, 4553 on tree, 1e+50 best solution, best possible 134.17319 (2137.35 seconds)
Cbc0010I After 9300 nodes, 4603 on tree, 1e+50 best solution, best possible 134.17319 (2164.17 seconds)
Cbc0010I After 9400 nodes, 4652 on tree, 1e+50 best solution, best possible 134.17319 (2191.36 seconds)
Cbc0010I After 9500 nodes, 4702 on tree, 1e+50 best solution, best possible 134.17319 (2218.73 seconds)
Cbc0010I After 9600 nodes, 4752 on tree, 1e+50 best solution, best possible 134.17319 (2246.59 seconds)
Cbc0010I After 9700 nodes, 4800 on tree, 1e+50 best solution, best possible 134.17319 (2274.29 seconds)
Cbc0010I After 9800 nodes, 4850 on tree, 1e+50 best solution, best possible 134.17319 (2302.38 seconds)
Cbc0010I After 9900 nodes, 4899 on tree, 1e+50 best solution, best possible 134.17319 (2330.59 seconds)
Cbc0010I After 10000 nodes, 4949 on tree, 1e+50 best solution, best possible 134.17319 (2359.29 seconds)
Cbc0010I After 10100 nodes, 4995 on tree, 1e+50 best solution, best possible 134.17319 (2388.13 seconds)
Cbc0010I After 10200 nodes, 5043 on tree, 1e+50 best solution, best possible 134.17319 (2417.22 seconds)
Cbc0010I After 10300 nodes, 5093 on tree, 1e+50 best solution, best possible 134.17319 (2446.36 seconds)
Cbc0010I After 10400 nodes, 5142 on tree, 1e+50 best solution, best possible 134.17319 (2475.75 seconds)
Cbc0010I After 10500 nodes, 5186 on tree, 1e+50 best solution, best possible 134.17319 (2505.23 seconds)
Optimality Based BT: 0 improved bounds
Optimality Based BT: 0 improved bounds
Optimality Based BT: 0 improved bounds
Cbc0010I After 10600 nodes, 5223 on tree, 1e+50 best solution, best possible 134.87578 (2707.94 seconds)
Optimality Based BT: 0 improved bounds
Cbc0010I After 10700 nodes, 5273 on tree, 1e+50 best solution, best possible 134.87578 (2742.06 seconds)
Cbc0010I After 10800 nodes, 5323 on tree, 1e+50 best solution, best possible 134.87578 (2760.60 seconds)
Cbc0010I After 10900 nodes, 5373 on tree, 1e+50 best solution, best possible 134.87578 (2779.64 seconds)
Cbc0010I After 11000 nodes, 5423 on tree, 1e+50 best solution, best possible 134.87578 (2796.73 seconds)
Cbc0010I After 11100 nodes, 5473 on tree, 1e+50 best solution, best possible 134.87578 (2812.90 seconds)
Cbc0010I After 11200 nodes, 5523 on tree, 1e+50 best solution, best possible 134.87578 (2830.46 seconds)
Cbc0010I After 11300 nodes, 5573 on tree, 1e+50 best solution, best possible 134.87578 (2848.72 seconds)
Cbc0010I After 11400 nodes, 5623 on tree, 1e+50 best solution, best possible 134.87578 (2867.73 seconds)
Cbc0010I After 11500 nodes, 5673 on tree, 1e+50 best solution, best possible 134.87578 (2886.46 seconds)
Cbc0010I After 11600 nodes, 5723 on tree, 1e+50 best solution, best possible 134.87578 (2904.12 seconds)
Cbc0010I After 11700 nodes, 5773 on tree, 1e+50 best solution, best possible 134.87578 (2922.01 seconds)
Cbc0010I After 11800 nodes, 5823 on tree, 1e+50 best solution, best possible 134.87578 (2939.90 seconds)
Cbc0010I After 11900 nodes, 5873 on tree, 1e+50 best solution, best possible 134.87578 (2957.41 seconds)
Cbc0010I After 12000 nodes, 5923 on tree, 1e+50 best solution, best possible 134.87578 (2976.05 seconds)
Cbc0010I After 12100 nodes, 5973 on tree, 1e+50 best solution, best possible 134.87578 (2995.33 seconds)
Cbc0010I After 12200 nodes, 6023 on tree, 1e+50 best solution, best possible 134.87578 (3013.94 seconds)
Cbc0010I After 12300 nodes, 6073 on tree, 1e+50 best solution, best possible 134.87578 (3031.82 seconds)
Cbc0010I After 12400 nodes, 6123 on tree, 1e+50 best solution, best possible 134.87578 (3049.69 seconds)
Cbc0010I After 12500 nodes, 6173 on tree, 1e+50 best solution, best possible 134.87578 (3067.60 seconds)
Cbc0010I After 12600 nodes, 6223 on tree, 1e+50 best solution, best possible 134.87578 (3085.96 seconds)
Cbc0010I After 12700 nodes, 6273 on tree, 1e+50 best solution, best possible 134.87578 (3104.22 seconds)
Cbc0010I After 12800 nodes, 6323 on tree, 1e+50 best solution, best possible 134.87578 (3122.85 seconds)
Cbc0010I After 12900 nodes, 6373 on tree, 1e+50 best solution, best possible 134.87578 (3141.65 seconds)
Cbc0010I After 13000 nodes, 6423 on tree, 1e+50 best solution, best possible 134.87578 (3159.93 seconds)
Cbc0010I After 13100 nodes, 6473 on tree, 1e+50 best solution, best possible 134.87578 (3177.63 seconds)
Cbc0010I After 13200 nodes, 6523 on tree, 1e+50 best solution, best possible 134.87578 (3194.34 seconds)
Cbc0010I After 13300 nodes, 6573 on tree, 1e+50 best solution, best possible 134.87578 (3210.82 seconds)
Cbc0010I After 13400 nodes, 6623 on tree, 1e+50 best solution, best possible 134.87578 (3227.96 seconds)
Cbc0010I After 13500 nodes, 6673 on tree, 1e+50 best solution, best possible 134.87578 (3245.19 seconds)
Cbc0010I After 13600 nodes, 6723 on tree, 1e+50 best solution, best possible 134.87578 (3261.64 seconds)
Cbc0010I After 13700 nodes, 6773 on tree, 1e+50 best solution, best possible 134.87578 (3277.81 seconds)
Cbc0010I After 13800 nodes, 6823 on tree, 1e+50 best solution, best possible 134.87578 (3294.58 seconds)
Cbc0010I After 13900 nodes, 6873 on tree, 1e+50 best solution, best possible 134.87578 (3310.97 seconds)
Cbc0010I After 14000 nodes, 6923 on tree, 1e+50 best solution, best possible 134.87578 (3327.28 seconds)
Cbc0010I After 14100 nodes, 6973 on tree, 1e+50 best solution, best possible 134.87578 (3343.52 seconds)
Cbc0010I After 14200 nodes, 7023 on tree, 1e+50 best solution, best possible 134.87578 (3360.16 seconds)
Cbc0010I After 14300 nodes, 7073 on tree, 1e+50 best solution, best possible 134.87578 (3376.80 seconds)
Cbc0010I After 14400 nodes, 7123 on tree, 1e+50 best solution, best possible 134.87578 (3393.92 seconds)
Cbc0010I After 14500 nodes, 7173 on tree, 1e+50 best solution, best possible 134.87578 (3411.12 seconds)
Cbc0010I After 14600 nodes, 7222 on tree, 1e+50 best solution, best possible 134.87578 (3428.16 seconds)
Cbc0010I After 14700 nodes, 7272 on tree, 1e+50 best solution, best possible 134.87578 (3445.86 seconds)
Cbc0010I After 14800 nodes, 7322 on tree, 1e+50 best solution, best possible 134.87578 (3463.11 seconds)
Cbc0010I After 14900 nodes, 7372 on tree, 1e+50 best solution, best possible 134.87578 (3480.74 seconds)
Cbc0010I After 15000 nodes, 7422 on tree, 1e+50 best solution, best possible 134.87578 (3498.44 seconds)
Cbc0010I After 15100 nodes, 7472 on tree, 1e+50 best solution, best possible 134.87578 (3515.88 seconds)
Cbc0010I After 15200 nodes, 7522 on tree, 1e+50 best solution, best possible 134.87578 (3533.22 seconds)
Cbc0010I After 15300 nodes, 7572 on tree, 1e+50 best solution, best possible 134.87578 (3550.80 seconds)
Cbc0010I After 15400 nodes, 7622 on tree, 1e+50 best solution, best possible 134.87578 (3568.35 seconds)
slurmstepd: error: *** JOB 1884499 ON optimum04 CANCELLED AT 2025-01-12T15:58:47 DUE TO TIME LIMIT ***
